c Sudoku solution
p cnf 729 0
114 0
149 0
163 0
197 0
213 0
247 0
268 0
289 0
291 0
396 0
428 0
452 0
464 0
546 0
616 0
624 0
665 0
693 0
725 0
758 0
648 0
781 0
811 0
837 0
984 0
734 0
594 0
995 0
499 0
898 0
792 0
719 0
743 0
441 0
553 0
433 0
942 0
822 0
918 0
923 0
936 0
226 0
121 0
156 0
362 0
351 0
512 0
961 0
315 0
232 0
138 0
327 0
339 0
344 0
255 0
274 0
417 0
535 0
631 0
529 0
571 0
588 0
567 0
659 0
845 0
854 0
957 0
766 0
869 0
777 0
979 0
672 0
687 0
175 0
182 0
476 0
485 0
873 0
886 0
378 0
383 0
